COLUMNS

passenger_count
pickup_ID
dropoff_ID
request_time_sec
pickup_district
dropoff_district
LDuals
IDuals
vehicle_ID
pick_position
drop_position

REQUESTS_INFO
1      1047      1044      30437     291       291       104       104       157       1         2         
1      256       333       30441     87        119       120       120       282       1         2         
1      719       527       30425     189       52        94        94        351       1         2         
1      1263      10        30429     192       98        133       133       449       1         2         
1      280       664       30398     277       131       177       177       585       1         2         
3      887       937       30431     290       291       103       103       632       1         2         
3      1213      1026      30428     129       291       168       168       726       1         3         
1      209       193       30450     266       266       0         0         0         0         0         
1      462       527       30452     189       52        0         0         0         0         0         
1      1149      1048      30452     291       291       0         0         0         0         0         
1      572       526       30453     131       52        0         0         0         0         0         
1      277       557       30454     87        189       0         0         0         0         0         
1      939       1530      30454     291       296       0         0         0         0         0         
1      460       78        30456     189       9         0         0         0         0         0         
1      277       793       30456     87        290       0         0         0         0         0         
1      1128      782       30457     291       291       0         0         0         0         0         
1      745       858       30457     290       290       0         0         0         0         0         
4      527       639       30457     52        131       0         0         0         0         0         
2      408       31        30457     299       9         0         0         0         0         0         
1      677       1106      30458     189       291       0         0         0         0         0         
1      726       948       30458     290       290       0         0         0         0         0         
1      632       621       30458     189       280       0         0         0         0         0         
1      736       671       30459     131       280       0         0         0         0         0         
3      983       1218      30460     291       84        0         0         0         0         0         
3      983       1218      30460     291       84        0         0         0         0         0         
1      712       1416      30460     131       129       0         0         0         0         0         
1      770       556       30461     290       199       0         0         0         0         0         
1      1107      254       30461     291       87        0         0         0         0         0         
1      248       189       30461     266       286       0         0         0         0         0         
1      1087      1207      30463     291       192       0         0         0         0         0         
1      533       466       30463     199       199       0         0         0         0         0         
1      731       32        30463     131       98        0         0         0         0         0         
1      580       551       30464     189       189       0         0         0         0         0         
1      20        19        30464     98        98        0         0         0         0         0         
3      195       509       30466     207       199       0         0         0         0         0         
1      236       605       30466     87        189       0         0         0         0         0         
1      314       527       30466     119       52        0         0         0         0         0         
1      847       172       30468     291       286       0         0         0         0         0         
1      980       1194      30468     291       129       0         0         0         0         0         
1      722       906       30468     290       290       0         0         0         0         0         
1      835       947       30468     290       290       0         0         0         0         0         
2      837       969       30468     290       290       0         0         0         0         0         
1      818       551       30470     290       189       0         0         0         0         0         
1      1225      1704      30470     192       142       0         0         0         0         0         
1      307       199       30470     127       178       0         0         0         0         0         
1      760       722       30471     291       290       0         0         0         0         0         
1      663       527       30471     131       52        0         0         0         0         0         
1      892       960       30471     291       291       0         0         0         0         0         
1      627       534       30472     189       199       0         0         0         0         0         
1      410       1074      30472     52        84        0         0         0         0         0         
1      847       851       30473     291       291       0         0         0         0         0         
1      479       722       30474     52        290       0         0         0         0         0         
2      632       772       30476     189       290       0         0         0         0         0         
2      813       1106      30476     290       291       0         0         0         0         0         
1      907       813       30477     290       290       0         0         0         0         0         
1      1086      548       30477     291       52        0         0         0         0         0         
1      767       827       30477     290       291       0         0         0         0         0         
1      883       805       30477     290       291       0         0         0         0         0         
1      758       1066      30478     131       291       0         0         0         0         0         
1      768       652       30479     290       189       0         0         0         0         0         
2      780       1023      30479     291       291       0         0         0         0         0         
